
Gurobi 8.0.1 (win64, Java) logging started 09/29/18 20:38:16

Academic license - for non-commercial use only
Optimize a model with 2 rows, 3 columns and 5 nonzeros
Variable types: 0 continuous, 3 integer (3 binary)
Coefficient statistics:
  Matrix range     [1e+00, 3e+00]
  Objective range  [1e+00, 2e+00]
  Bounds range     [1e+00, 1e+00]
  RHS range        [1e+00, 4e+00]
Found heuristic solution: objective 2.0000000
Presolve removed 2 rows and 3 columns
Presolve time: 0.10s
Presolve: All rows and columns removed

Explored 0 nodes (0 simplex iterations) in 0.14 seconds
Thread count was 1 (of 4 available processors)

Solution count 2: 3 2 

Optimal solution found (tolerance 1.00e-04)
Best objective 3.000000000000e+00, best bound 3.000000000000e+00, gap 0.0000%

Gurobi 8.0.1 (win64, Java) logging started 10/01/18 13:07:34

Academic license - for non-commercial use only

Gurobi 8.0.1 (win64, Java) logging started 10/01/18 13:07:56

Academic license - for non-commercial use only

Gurobi 8.0.1 (win64, Java) logging started 10/01/18 13:08:27

Academic license - for non-commercial use only

Gurobi 8.0.1 (win64, Java) logging started 10/01/18 13:08:36

Academic license - for non-commercial use only

Gurobi 8.0.1 (win64, Java) logging started 10/01/18 13:08:54

Academic license - for non-commercial use only

Gurobi 8.0.1 (win64, Java) logging started 10/01/18 13:09:00

Academic license - for non-commercial use only

Gurobi 8.0.1 (win64, Java) logging started 10/01/18 13:09:03

Academic license - for non-commercial use only

Gurobi 8.0.1 (win64, Java) logging started 10/01/18 13:09:42

Academic license - for non-commercial use only

Gurobi 8.0.1 (win64, Java) logging started 10/01/18 13:10:26

Academic license - for non-commercial use only

Gurobi 8.0.1 (win64, Java) logging started 10/01/18 13:12:14

Academic license - for non-commercial use only

Gurobi 8.0.1 (win64, Java) logging started 10/01/18 13:13:07

Academic license - for non-commercial use only

Gurobi 8.0.1 (win64, Java) logging started 10/01/18 13:13:20

Academic license - for non-commercial use only

Gurobi 8.0.1 (win64, Java) logging started 10/01/18 13:14:08

Academic license - for non-commercial use only

Gurobi 8.0.1 (win64, Java) logging started 10/01/18 13:15:48

Academic license - for non-commercial use only

Gurobi 8.0.1 (win64, Java) logging started 10/01/18 13:16:10

Academic license - for non-commercial use only
Optimize a model with 6 rows, 6 columns and 15 nonzeros
Variable types: 2 continuous, 4 integer (4 binary)
Coefficient statistics:
  Matrix range     [1e+00, 1e+00]
  Objective range  [1e+00, 1e+00]
  Bounds range     [1e+00, 1e+06]
  RHS range        [1e+00, 1e+00]
Presolve removed 6 rows and 6 columns
Presolve time: 0.06s
Presolve: All rows and columns removed

Explored 0 nodes (0 simplex iterations) in 0.06 seconds
Thread count was 1 (of 4 available processors)

Solution count 1: 0 

Optimal solution found (tolerance 1.00e-04)
Best objective 0.000000000000e+00, best bound 0.000000000000e+00, gap 0.0000%

Gurobi 8.0.1 (win64, Java) logging started 10/01/18 13:16:19

Academic license - for non-commercial use only

Gurobi 8.0.1 (win64, Java) logging started 10/01/18 13:16:26

Academic license - for non-commercial use only
Optimize a model with 6 rows, 6 columns and 13 nonzeros
Variable types: 2 continuous, 4 integer (4 binary)
Coefficient statistics:
  Matrix range     [1e+00, 5e+00]
  Objective range  [1e+00, 1e+00]
  Bounds range     [1e+00, 1e+06]
  RHS range        [1e+00, 1e+00]
Found heuristic solution: objective 0.0000000

Explored 0 nodes (0 simplex iterations) in 0.00 seconds
Thread count was 1 (of 4 available processors)

Solution count 1: 0 

Optimal solution found (tolerance 1.00e-04)
Best objective 0.000000000000e+00, best bound 0.000000000000e+00, gap 0.0000%

Gurobi 8.0.1 (win64, Java) logging started 10/01/18 13:16:38

Academic license - for non-commercial use only

Gurobi 8.0.1 (win64, Java) logging started 10/01/18 13:19:06

Academic license - for non-commercial use only

Gurobi 8.0.1 (win64, Java) logging started 10/01/18 13:25:24

Academic license - for non-commercial use only
Optimize a model with 6 rows, 6 columns and 15 nonzeros
Variable types: 2 continuous, 4 integer (4 binary)
Coefficient statistics:
  Matrix range     [1e+00, 1e+03]
  Objective range  [1e+00, 1e+00]
  Bounds range     [1e+00, 1e+06]
  RHS range        [1e+00, 1e+00]
Presolve removed 6 rows and 6 columns
Presolve time: 0.00s
Presolve: All rows and columns removed

Explored 0 nodes (0 simplex iterations) in 0.00 seconds
Thread count was 1 (of 4 available processors)

Solution count 1: 0 

Optimal solution found (tolerance 1.00e-04)
Best objective 0.000000000000e+00, best bound 0.000000000000e+00, gap 0.0000%

Gurobi 8.0.1 (win64, Java) logging started 10/01/18 13:25:44

Academic license - for non-commercial use only
Optimize a model with 6 rows, 6 columns and 15 nonzeros
Variable types: 2 continuous, 4 integer (4 binary)
Coefficient statistics:
  Matrix range     [1e+00, 1e+03]
  Objective range  [1e+00, 1e+00]
  Bounds range     [1e+00, 1e+06]
  RHS range        [1e+00, 1e+00]
Presolve removed 6 rows and 6 columns
Presolve time: 0.00s
Presolve: All rows and columns removed

Explored 0 nodes (0 simplex iterations) in 0.00 seconds
Thread count was 1 (of 4 available processors)

Solution count 1: 0 

Optimal solution found (tolerance 1.00e-04)
Best objective 0.000000000000e+00, best bound 0.000000000000e+00, gap 0.0000%

Gurobi 8.0.1 (win64, Java) logging started 10/01/18 13:26:13

Academic license - for non-commercial use only
Optimize a model with 6 rows, 6 columns and 15 nonzeros
Variable types: 2 continuous, 4 integer (4 binary)
Coefficient statistics:
  Matrix range     [1e+00, 1e+03]
  Objective range  [1e+00, 1e+00]
  Bounds range     [1e+00, 1e+06]
  RHS range        [1e+00, 1e+00]
Presolve removed 6 rows and 6 columns
Presolve time: 0.00s
Presolve: All rows and columns removed

Explored 0 nodes (0 simplex iterations) in 0.00 seconds
Thread count was 1 (of 4 available processors)

Solution count 1: 0 

Optimal solution found (tolerance 1.00e-04)
Best objective 0.000000000000e+00, best bound 0.000000000000e+00, gap 0.0000%

Gurobi 8.0.1 (win64, Java) logging started 10/01/18 13:26:27

Academic license - for non-commercial use only
Optimize a model with 6 rows, 6 columns and 15 nonzeros
Variable types: 2 continuous, 4 integer (4 binary)
Coefficient statistics:
  Matrix range     [1e+00, 1e+03]
  Objective range  [1e+00, 1e+00]
  Bounds range     [1e+00, 1e+06]
  RHS range        [1e+00, 1e+00]
Presolve removed 6 rows and 6 columns
Presolve time: 0.00s
Presolve: All rows and columns removed

Explored 0 nodes (0 simplex iterations) in 0.00 seconds
Thread count was 1 (of 4 available processors)

Solution count 1: 0 

Optimal solution found (tolerance 1.00e-04)
Best objective 0.000000000000e+00, best bound 0.000000000000e+00, gap 0.0000%

Gurobi 8.0.1 (win64, Java) logging started 10/01/18 13:26:57

Academic license - for non-commercial use only
Optimize a model with 6 rows, 6 columns and 15 nonzeros
Variable types: 2 continuous, 4 integer (4 binary)
Coefficient statistics:
  Matrix range     [1e+00, 1e+03]
  Objective range  [1e+00, 1e+00]
  Bounds range     [1e+00, 1e+06]
  RHS range        [1e+00, 1e+00]
Presolve removed 6 rows and 6 columns
Presolve time: 0.00s
Presolve: All rows and columns removed

Explored 0 nodes (0 simplex iterations) in 0.00 seconds
Thread count was 1 (of 4 available processors)

Solution count 1: 0 

Optimal solution found (tolerance 1.00e-04)
Best objective 0.000000000000e+00, best bound 0.000000000000e+00, gap 0.0000%

Gurobi 8.0.1 (win64, Java) logging started 10/01/18 13:29:21

Academic license - for non-commercial use only
Optimize a model with 6 rows, 6 columns and 15 nonzeros
Variable types: 2 continuous, 4 integer (4 binary)
Coefficient statistics:
  Matrix range     [1e+00, 1e+03]
  Objective range  [1e+00, 1e+00]
  Bounds range     [1e+00, 1e+06]
  RHS range        [1e+00, 1e+00]
Presolve removed 6 rows and 6 columns
Presolve time: 0.00s
Presolve: All rows and columns removed

Explored 0 nodes (0 simplex iterations) in 0.00 seconds
Thread count was 1 (of 4 available processors)

Solution count 1: 0 

Optimal solution found (tolerance 1.00e-04)
Best objective 0.000000000000e+00, best bound 0.000000000000e+00, gap 0.0000%

Gurobi 8.0.1 (win64, Java) logging started 10/01/18 13:31:57

Academic license - for non-commercial use only
Optimize a model with 6 rows, 6 columns and 15 nonzeros
Variable types: 2 continuous, 4 integer (4 binary)
Coefficient statistics:
  Matrix range     [1e+00, 1e+03]
  Objective range  [1e+00, 1e+00]
  Bounds range     [1e+00, 1e+06]
  RHS range        [1e+00, 1e+00]
Presolve removed 6 rows and 6 columns
Presolve time: 0.00s
Presolve: All rows and columns removed

Explored 0 nodes (0 simplex iterations) in 0.00 seconds
Thread count was 1 (of 4 available processors)

Solution count 1: 0 

Optimal solution found (tolerance 1.00e-04)
Best objective 0.000000000000e+00, best bound 0.000000000000e+00, gap 0.0000%

Gurobi 8.0.1 (win64, Java) logging started 10/01/18 13:32:06

Academic license - for non-commercial use only
Optimize a model with 6 rows, 6 columns and 15 nonzeros
Variable types: 2 continuous, 4 integer (4 binary)
Coefficient statistics:
  Matrix range     [1e+00, 1e+03]
  Objective range  [1e+00, 1e+00]
  Bounds range     [1e+00, 1e+06]
  RHS range        [1e+00, 1e+00]
Presolve removed 6 rows and 6 columns
Presolve time: 0.00s
Presolve: All rows and columns removed

Explored 0 nodes (0 simplex iterations) in 0.00 seconds
Thread count was 1 (of 4 available processors)

Solution count 1: 0 

Optimal solution found (tolerance 1.00e-04)
Best objective 0.000000000000e+00, best bound 0.000000000000e+00, gap 0.0000%

Gurobi 8.0.1 (win64, Java) logging started 10/01/18 13:33:32

Academic license - for non-commercial use only
Optimize a model with 6 rows, 6 columns and 15 nonzeros
Variable types: 2 continuous, 4 integer (4 binary)
Coefficient statistics:
  Matrix range     [1e+00, 1e+00]
  Objective range  [1e+00, 1e+00]
  Bounds range     [1e+00, 1e+06]
  RHS range        [1e+00, 1e+00]
Presolve removed 6 rows and 6 columns
Presolve time: 0.00s
Presolve: All rows and columns removed

Explored 0 nodes (0 simplex iterations) in 0.00 seconds
Thread count was 1 (of 4 available processors)

Solution count 1: 0 

Optimal solution found (tolerance 1.00e-04)
Best objective 0.000000000000e+00, best bound 0.000000000000e+00, gap 0.0000%

Gurobi 8.0.1 (win64, Java) logging started 10/02/18 07:31:01

Academic license - for non-commercial use only
Optimize a model with 6 rows, 6 columns and 15 nonzeros
Variable types: 2 continuous, 4 integer (4 binary)
Coefficient statistics:
  Matrix range     [1e+00, 1e+00]
  Objective range  [1e+00, 1e+00]
  Bounds range     [1e+00, 1e+06]
  RHS range        [1e+00, 1e+00]
Presolve removed 6 rows and 6 columns
Presolve time: 0.00s
Presolve: All rows and columns removed

Explored 0 nodes (0 simplex iterations) in 0.00 seconds
Thread count was 1 (of 4 available processors)

Solution count 1: 0 

Optimal solution found (tolerance 1.00e-04)
Best objective 0.000000000000e+00, best bound 0.000000000000e+00, gap 0.0000%

Gurobi 8.0.1 (win64, Java) logging started 10/02/18 07:32:07

Academic license - for non-commercial use only
Optimize a model with 6 rows, 6 columns and 15 nonzeros
Variable types: 2 continuous, 4 integer (4 binary)
Coefficient statistics:
  Matrix range     [1e+00, 1e+00]
  Objective range  [1e+00, 1e+00]
  Bounds range     [1e+00, 1e+06]
  RHS range        [1e+00, 1e+00]
Presolve removed 6 rows and 6 columns
Presolve time: 0.00s
Presolve: All rows and columns removed

Explored 0 nodes (0 simplex iterations) in 0.00 seconds
Thread count was 1 (of 4 available processors)

Solution count 1: 0 

Optimal solution found (tolerance 1.00e-04)
Best objective 0.000000000000e+00, best bound 0.000000000000e+00, gap 0.0000%

Gurobi 8.0.1 (win64, Java) logging started 10/02/18 07:39:27

Academic license - for non-commercial use only
Optimize a model with 6 rows, 6 columns and 15 nonzeros
Variable types: 2 continuous, 4 integer (4 binary)
Coefficient statistics:
  Matrix range     [1e+00, 1e+03]
  Objective range  [1e+00, 1e+00]
  Bounds range     [1e+00, 1e+06]
  RHS range        [1e+00, 1e+00]
Presolve removed 6 rows and 6 columns
Presolve time: 0.02s
Presolve: All rows and columns removed

Explored 0 nodes (0 simplex iterations) in 0.02 seconds
Thread count was 1 (of 4 available processors)

Solution count 1: 0 

Optimal solution found (tolerance 1.00e-04)
Best objective 0.000000000000e+00, best bound 0.000000000000e+00, gap 0.0000%

Gurobi 8.0.1 (win64, Java) logging started 10/02/18 07:39:51

Academic license - for non-commercial use only
Optimize a model with 6 rows, 6 columns and 15 nonzeros
Variable types: 2 continuous, 4 integer (4 binary)
Coefficient statistics:
  Matrix range     [1e+00, 1e+03]
  Objective range  [1e+00, 1e+00]
  Bounds range     [1e+00, 1e+06]
  RHS range        [1e+00, 1e+00]
Presolve removed 6 rows and 6 columns
Presolve time: 0.00s
Presolve: All rows and columns removed

Explored 0 nodes (0 simplex iterations) in 0.00 seconds
Thread count was 1 (of 4 available processors)

Solution count 1: 0 

Optimal solution found (tolerance 1.00e-04)
Best objective 0.000000000000e+00, best bound 0.000000000000e+00, gap 0.0000%

Gurobi 8.0.1 (win64, Java) logging started 10/02/18 07:42:10

Academic license - for non-commercial use only
Optimize a model with 6 rows, 6 columns and 15 nonzeros
Variable types: 2 continuous, 4 integer (4 binary)
Coefficient statistics:
  Matrix range     [1e+00, 1e+03]
  Objective range  [1e+00, 1e+00]
  Bounds range     [1e+00, 1e+06]
  RHS range        [1e+00, 1e+00]
Presolve removed 6 rows and 6 columns
Presolve time: 0.00s
Presolve: All rows and columns removed

Explored 0 nodes (0 simplex iterations) in 0.00 seconds
Thread count was 1 (of 4 available processors)

Solution count 1: 0 

Optimal solution found (tolerance 1.00e-04)
Best objective 0.000000000000e+00, best bound 0.000000000000e+00, gap 0.0000%

Gurobi 8.0.1 (win64, Java) logging started 10/02/18 07:45:40

Academic license - for non-commercial use only
Optimize a model with 6 rows, 6 columns and 15 nonzeros
Variable types: 2 continuous, 4 integer (4 binary)
Coefficient statistics:
  Matrix range     [1e+00, 1e+03]
  Objective range  [1e+00, 1e+00]
  Bounds range     [1e+00, 1e+06]
  RHS range        [1e+00, 1e+00]
Presolve removed 6 rows and 6 columns
Presolve time: 0.00s
Presolve: All rows and columns removed

Explored 0 nodes (0 simplex iterations) in 0.00 seconds
Thread count was 1 (of 4 available processors)

Solution count 1: 0 

Optimal solution found (tolerance 1.00e-04)
Best objective 0.000000000000e+00, best bound 0.000000000000e+00, gap 0.0000%

Gurobi 8.0.1 (win64, Java) logging started 10/02/18 07:45:57

Academic license - for non-commercial use only
Optimize a model with 6 rows, 6 columns and 15 nonzeros
Variable types: 2 continuous, 4 integer (4 binary)
Coefficient statistics:
  Matrix range     [1e+00, 1e+03]
  Objective range  [1e+00, 1e+00]
  Bounds range     [1e+00, 1e+06]
  RHS range        [1e+00, 1e+00]
Presolve removed 6 rows and 6 columns
Presolve time: 0.00s
Presolve: All rows and columns removed

Explored 0 nodes (0 simplex iterations) in 0.00 seconds
Thread count was 1 (of 4 available processors)

Solution count 1: 0 

Optimal solution found (tolerance 1.00e-04)
Best objective 0.000000000000e+00, best bound 0.000000000000e+00, gap 0.0000%

Gurobi 8.0.1 (win64, Java) logging started 10/02/18 07:46:12

Academic license - for non-commercial use only
Optimize a model with 6 rows, 6 columns and 15 nonzeros
Variable types: 2 continuous, 4 integer (4 binary)
Coefficient statistics:
  Matrix range     [1e+00, 1e+03]
  Objective range  [1e+00, 1e+00]
  Bounds range     [1e+00, 1e+06]
  RHS range        [1e+00, 1e+00]
Presolve removed 6 rows and 6 columns
Presolve time: 0.00s
Presolve: All rows and columns removed

Explored 0 nodes (0 simplex iterations) in 0.00 seconds
Thread count was 1 (of 4 available processors)

Solution count 1: 0 

Optimal solution found (tolerance 1.00e-04)
Best objective 0.000000000000e+00, best bound 0.000000000000e+00, gap 0.0000%

Gurobi 8.0.1 (win64, Java) logging started 10/02/18 07:46:39

Academic license - for non-commercial use only
Optimize a model with 6 rows, 6 columns and 13 nonzeros
Variable types: 2 continuous, 4 integer (4 binary)
Coefficient statistics:
  Matrix range     [1e+00, 1e+03]
  Objective range  [1e+00, 1e+00]
  Bounds range     [1e+00, 1e+06]
  RHS range        [1e+00, 1e+00]
Presolve removed 6 rows and 6 columns
Presolve time: 0.00s
Presolve: All rows and columns removed

Explored 0 nodes (0 simplex iterations) in 0.00 seconds
Thread count was 1 (of 4 available processors)

Solution count 1: 0 

Optimal solution found (tolerance 1.00e-04)
Best objective 0.000000000000e+00, best bound 0.000000000000e+00, gap 0.0000%

Gurobi 8.0.1 (win64, Java) logging started 10/02/18 07:47:14

Academic license - for non-commercial use only
Optimize a model with 6 rows, 6 columns and 13 nonzeros
Variable types: 2 continuous, 4 integer (4 binary)
Coefficient statistics:
  Matrix range     [1e+00, 1e+03]
  Objective range  [1e+00, 1e+00]
  Bounds range     [1e+00, 1e+06]
  RHS range        [1e+00, 1e+00]
Presolve removed 6 rows and 6 columns
Presolve time: 0.00s
Presolve: All rows and columns removed

Explored 0 nodes (0 simplex iterations) in 0.00 seconds
Thread count was 1 (of 4 available processors)

Solution count 1: 0 

Optimal solution found (tolerance 1.00e-04)
Best objective 0.000000000000e+00, best bound 0.000000000000e+00, gap 0.0000%

Gurobi 8.0.1 (win64, Java) logging started 10/02/18 07:47:45

Academic license - for non-commercial use only
Optimize a model with 6 rows, 6 columns and 11 nonzeros
Variable types: 2 continuous, 4 integer (4 binary)
Coefficient statistics:
  Matrix range     [1e+00, 1e+03]
  Objective range  [1e+00, 1e+00]
  Bounds range     [1e+00, 1e+06]
  RHS range        [1e+00, 1e+00]
Presolve removed 6 rows and 6 columns
Presolve time: 0.00s
Presolve: All rows and columns removed

Explored 0 nodes (0 simplex iterations) in 0.00 seconds
Thread count was 1 (of 4 available processors)

Solution count 1: 0 

Optimal solution found (tolerance 1.00e-04)
Best objective 0.000000000000e+00, best bound 0.000000000000e+00, gap 0.0000%

Gurobi 8.0.1 (win64, Java) logging started 10/02/18 08:04:00

Academic license - for non-commercial use only
Optimize a model with 7 rows, 6 columns and 12 nonzeros
Variable types: 2 continuous, 4 integer (4 binary)
Coefficient statistics:
  Matrix range     [1e+00, 1e+03]
  Objective range  [1e+00, 1e+00]
  Bounds range     [1e+00, 1e+06]
  RHS range        [1e+00, 1e+00]
Presolve removed 7 rows and 6 columns
Presolve time: 0.00s
Presolve: All rows and columns removed

Explored 0 nodes (0 simplex iterations) in 0.00 seconds
Thread count was 1 (of 4 available processors)

Solution count 1: 0 

Optimal solution found (tolerance 1.00e-04)
Best objective 0.000000000000e+00, best bound 0.000000000000e+00, gap 0.0000%

Gurobi 8.0.1 (win64, Java) logging started 10/02/18 08:15:48

Academic license - for non-commercial use only
Optimize a model with 7 rows, 6 columns and 12 nonzeros
Variable types: 2 continuous, 4 integer (4 binary)
Coefficient statistics:
  Matrix range     [1e+00, 1e+03]
  Objective range  [1e+00, 1e+00]
  Bounds range     [1e+00, 1e+06]
  RHS range        [1e+00, 1e+00]
Presolve removed 1 rows and 3 columns
Presolve time: 0.00s

Explored 0 nodes (0 simplex iterations) in 0.00 seconds
Thread count was 1 (of 4 available processors)

Solution count 0

Model is infeasible
Best objective -, best bound -, gap -

Gurobi 8.0.1 (win64, Java) logging started 10/02/18 08:16:18

Academic license - for non-commercial use only
Optimize a model with 7 rows, 6 columns and 12 nonzeros
Variable types: 2 continuous, 4 integer (4 binary)
Coefficient statistics:
  Matrix range     [1e+00, 1e+03]
  Objective range  [1e+00, 1e+00]
  Bounds range     [1e+00, 1e+06]
  RHS range        [1e+00, 1e+00]
Presolve removed 1 rows and 3 columns
Presolve time: 0.00s

Explored 0 nodes (0 simplex iterations) in 0.00 seconds
Thread count was 1 (of 4 available processors)

Solution count 0

Model is infeasible
Best objective -, best bound -, gap -

Gurobi 8.0.1 (win64, Java) logging started 10/02/18 08:25:50

Academic license - for non-commercial use only
Optimize a model with 5 rows, 6 columns and 8 nonzeros
Variable types: 2 continuous, 4 integer (4 binary)
Coefficient statistics:
  Matrix range     [1e+00, 1e+03]
  Objective range  [1e+00, 1e+00]
  Bounds range     [1e+00, 1e+06]
  RHS range        [1e+00, 1e+00]
Presolve removed 1 rows and 3 columns
Presolve time: 0.00s

Explored 0 nodes (0 simplex iterations) in 0.00 seconds
Thread count was 1 (of 4 available processors)

Solution count 0

Model is infeasible
Best objective -, best bound -, gap -

Gurobi 8.0.1 (win64, Java) logging started 10/02/18 12:23:15

Academic license - for non-commercial use only
Optimize a model with 5 rows, 6 columns and 10 nonzeros
Variable types: 2 continuous, 4 integer (4 binary)
Coefficient statistics:
  Matrix range     [1e+00, 1e+03]
  Objective range  [1e+00, 1e+00]
  Bounds range     [1e+00, 1e+06]
  RHS range        [0e+00, 0e+00]
Found heuristic solution: objective 0.0000000

Explored 0 nodes (0 simplex iterations) in 0.11 seconds
Thread count was 1 (of 4 available processors)

Solution count 1: 0 

Optimal solution found (tolerance 1.00e-04)
Best objective 0.000000000000e+00, best bound 0.000000000000e+00, gap 0.0000%

Gurobi 8.0.1 (win64, Java) logging started 10/02/18 12:23:49

Academic license - for non-commercial use only
Optimize a model with 6 rows, 6 columns and 10 nonzeros
Variable types: 2 continuous, 4 integer (4 binary)
Coefficient statistics:
  Matrix range     [1e+00, 1e+03]
  Objective range  [1e+00, 1e+00]
  Bounds range     [1e+00, 1e+06]
  RHS range        [1e+00, 1e+00]
Presolve time: 0.00s

Explored 0 nodes (0 simplex iterations) in 0.00 seconds
Thread count was 1 (of 4 available processors)

Solution count 0

Model is infeasible
Best objective -, best bound -, gap -

Gurobi 8.0.1 (win64, Java) logging started 10/02/18 12:24:09

Academic license - for non-commercial use only
Optimize a model with 7 rows, 6 columns and 11 nonzeros
Variable types: 2 continuous, 4 integer (4 binary)
Coefficient statistics:
  Matrix range     [1e+00, 1e+03]
  Objective range  [1e+00, 1e+00]
  Bounds range     [1e+00, 1e+06]
  RHS range        [1e+00, 1e+00]
Presolve time: 0.00s

Explored 0 nodes (0 simplex iterations) in 0.00 seconds
Thread count was 1 (of 4 available processors)

Solution count 0

Model is infeasible
Best objective -, best bound -, gap -

Gurobi 8.0.1 (win64, Java) logging started 10/02/18 12:31:48

Academic license - for non-commercial use only
Optimize a model with 7 rows, 6 columns and 9 nonzeros
Variable types: 2 continuous, 4 integer (4 binary)
Coefficient statistics:
  Matrix range     [1e+00, 1e+03]
  Objective range  [1e+00, 1e+00]
  Bounds range     [1e+00, 1e+06]
  RHS range        [1e+00, 1e+00]
Presolve time: 0.00s

Explored 0 nodes (0 simplex iterations) in 0.00 seconds
Thread count was 1 (of 4 available processors)

Solution count 0

Model is infeasible
Best objective -, best bound -, gap -

Gurobi 8.0.1 (win64, Java) logging started 10/02/18 12:32:06

Academic license - for non-commercial use only
Optimize a model with 7 rows, 6 columns and 9 nonzeros
Variable types: 2 continuous, 4 integer (4 binary)
Coefficient statistics:
  Matrix range     [1e+00, 1e+03]
  Objective range  [1e+00, 1e+00]
  Bounds range     [1e+00, 1e+06]
  RHS range        [1e+00, 1e+00]
Presolve time: 0.00s

Explored 0 nodes (0 simplex iterations) in 0.00 seconds
Thread count was 1 (of 4 available processors)

Solution count 0

Model is infeasible
Best objective -, best bound -, gap -

Gurobi 8.0.1 (win64, Java) logging started 10/02/18 12:34:06

Academic license - for non-commercial use only
Optimize a model with 5 rows, 6 columns and 8 nonzeros
Variable types: 2 continuous, 4 integer (4 binary)
Coefficient statistics:
  Matrix range     [1e+00, 1e+03]
  Objective range  [1e+00, 1e+00]
  Bounds range     [1e+00, 1e+06]
  RHS range        [0e+00, 0e+00]
Found heuristic solution: objective 0.0000000

Explored 0 nodes (0 simplex iterations) in 0.00 seconds
Thread count was 1 (of 4 available processors)

Solution count 1: 0 

Optimal solution found (tolerance 1.00e-04)
Best objective 0.000000000000e+00, best bound 0.000000000000e+00, gap 0.0000%

Gurobi 8.0.1 (win64, Java) logging started 10/02/18 12:34:25

Academic license - for non-commercial use only
Optimize a model with 7 rows, 6 columns and 10 nonzeros
Variable types: 2 continuous, 4 integer (4 binary)
Coefficient statistics:
  Matrix range     [1e+00, 1e+03]
  Objective range  [1e+00, 1e+00]
  Bounds range     [1e+00, 1e+06]
  RHS range        [1e+00, 1e+00]
Presolve removed 2 rows and 3 columns
Presolve time: 0.00s

Explored 0 nodes (0 simplex iterations) in 0.00 seconds
Thread count was 1 (of 4 available processors)

Solution count 0

Model is infeasible
Best objective -, best bound -, gap -

Gurobi 8.0.1 (win64, Java) logging started 10/02/18 12:35:06

Academic license - for non-commercial use only
Optimize a model with 7 rows, 6 columns and 10 nonzeros
Variable types: 2 continuous, 4 integer (4 binary)
Coefficient statistics:
  Matrix range     [1e+00, 1e+03]
  Objective range  [1e+00, 1e+00]
  Bounds range     [1e+00, 1e+06]
  RHS range        [1e+00, 1e+00]
Presolve removed 2 rows and 3 columns
Presolve time: 0.00s

Explored 0 nodes (0 simplex iterations) in 0.00 seconds
Thread count was 1 (of 4 available processors)

Solution count 0

Model is infeasible
Best objective -, best bound -, gap -
